c FILE: i080-013

c SOURCE: From steinlib

c DESCRIPTION: Steinlib instance with 80 nodes and 350 edges.

p edge 80 350
e 1 12
e 1 29
e 1 34
e 1 40
e 1 42
e 1 70
e 1 73
e 2 3
e 2 9
e 2 12
e 2 13
e 2 15
e 2 37
e 2 39
e 2 55
e 2 61
e 2 63
e 2 74
e 2 77
e 3 7
e 3 19
e 3 20
e 3 23
e 3 32
e 3 52
e 3 53
e 3 67
e 3 71
e 3 75
e 3 78
e 4 10
e 4 13
e 4 14
e 4 25
e 4 42
e 4 47
e 4 64
e 4 73
e 4 75
e 5 7
e 5 21
e 5 22
e 5 27
e 5 29
e 5 43
e 5 52
e 5 75
e 6 11
e 6 13
e 6 28
e 6 39
e 6 62
e 6 66
e 6 75
e 7 13
e 7 14
e 7 15
e 7 32
e 7 50
e 7 52
e 7 61
e 7 64
e 7 75
e 8 15
e 8 33
e 8 41
e 8 44
e 8 48
e 8 58
e 8 69
e 9 34
e 9 40
e 9 43
e 9 57
e 9 80
e 10 17
e 10 22
e 10 69
e 10 77
e 11 15
e 11 25
e 11 29
e 11 41
e 11 47
e 11 55
e 11 56
e 11 74
e 11 77
e 11 78
e 12 19
e 12 24
e 12 27
e 12 29
e 12 36
e 12 40
e 12 45
e 12 50
e 12 53
e 12 71
e 13 21
e 13 26
e 13 29
e 13 30
e 13 38
e 13 50
e 13 57
e 13 59
e 13 70
e 14 18
e 14 30
e 14 41
e 14 47
e 14 61
e 14 63
e 14 66
e 14 68
e 15 20
e 15 23
e 15 52
e 15 65
e 15 73
e 15 74
e 16 31
e 16 37
e 16 48
e 16 56
e 16 60
e 16 66
e 16 78
e 17 18
e 17 31
e 17 42
e 17 44
e 17 46
e 17 47
e 17 55
e 17 62
e 17 69
e 18 22
e 18 32
e 18 42
e 18 45
e 18 52
e 18 62
e 18 69
e 18 72
e 19 37
e 19 41
e 19 43
e 19 54
e 19 56
e 19 57
e 19 61
e 19 62
e 19 65
e 19 66
e 19 68
e 20 24
e 20 25
e 20 29
e 20 30
e 20 35
e 20 44
e 20 50
e 20 54
e 20 73
e 20 76
e 20 80
e 21 31
e 21 39
e 21 56
e 22 26
e 22 31
e 22 44
e 22 51
e 22 54
e 22 58
e 22 73
e 22 77
e 23 38
e 23 45
e 23 53
e 23 59
e 23 61
e 23 68
e 23 71
e 23 77
e 23 80
e 24 42
e 24 58
e 24 60
e 24 66
e 24 79
e 25 51
e 25 55
e 25 60
e 25 63
e 26 29
e 26 38
e 26 40
e 26 52
e 26 66
e 26 67
e 26 68
e 27 29
e 27 33
e 27 38
e 27 44
e 27 49
e 27 55
e 27 61
e 27 68
e 27 69
e 27 70
e 27 71
e 27 74
e 28 35
e 28 37
e 28 45
e 28 47
e 28 61
e 28 63
e 28 73
e 29 36
e 29 39
e 29 51
e 29 52
e 29 67
e 29 78
e 30 49
e 30 50
e 30 53
e 30 57
e 30 58
e 30 67
e 30 70
e 30 72
e 30 78
e 31 41
e 31 53
e 31 63
e 31 76
e 32 42
e 32 80
e 33 36
e 34 37
e 34 49
e 34 51
e 34 70
e 34 78
e 35 36
e 35 61
e 36 48
e 36 50
e 36 61
e 36 70
e 36 78
e 37 46
e 37 47
e 37 58
e 37 63
e 37 66
e 37 70
e 37 72
e 38 44
e 38 61
e 38 64
e 38 65
e 38 68
e 38 74
e 39 51
e 39 58
e 39 61
e 40 44
e 40 58
e 40 69
e 40 72
e 40 79
e 41 42
e 41 63
e 41 69
e 42 47
e 42 73
e 42 76
e 43 62
e 43 80
e 44 76
e 44 78
e 45 73
e 46 54
e 46 67
e 47 50
e 47 54
e 47 56
e 47 74
e 48 55
e 48 62
e 48 72
e 49 51
e 49 53
e 49 57
e 49 60
e 49 64
e 49 66
e 50 64
e 51 66
e 51 78
e 52 60
e 52 67
e 52 72
e 52 76
e 52 77
e 53 57
e 54 60
e 54 66
e 54 68
e 54 75
e 55 62
e 55 65
e 55 79
e 55 80
e 56 69
e 56 73
e 57 60
e 57 72
e 58 60
e 58 72
e 58 80
e 59 71
e 59 72
e 60 69
e 60 70
e 61 64
e 61 74
e 62 65
e 62 67
e 62 73
e 62 74
e 62 80
e 64 65
e 64 72
e 65 66
e 66 77
e 66 79
e 68 77
e 69 79
e 70 74
e 74 80
e 75 79
e 77 80
